%%%mzn-stat: initTime=0.002326284
%%%mzn-stat: objective=507
%%%mzn-stat: nodes=953
%%%mzn-stat: restarts=0
%%%mzn-stat: peakDepth=70
%%%mzn-stat: solveTime=0.031572632
%%%mzn-stat: variables=212
%%%mzn-stat: propagators=132
%%%mzn-stat: failures=636
%%%mzn-stat: propagations=35842
%%%mzn-stat: nogoods=636
%%%mzn-stat: AverageConflictSize=5.270440251572327
%%%mzn-stat: NumUnitNogoodsLearned=506
%%%mzn-stat: AverageLearnedNogoodLength=2.160377358490566
%%%mzn-stat: AverageBacktrackAmount=0
%%%mzn-stat: AverageLbd=1.570754716981132
%%%mzn-stat-end
maxleg = 507;
succ = array1d(1..20,[2, 15, 5, 13, 12, 3, 4, 18, 14, 17, 1, 20, 19, 11, 16, 7, 8, 6, 10, 9]);
% time elapsed: 8.78 s
----------
==========
% time elapsed: 8.78 s
%%%mzn-stat: initTime=0.002326284
%%%mzn-stat: objective=507
%%%mzn-stat: nodes=953
%%%mzn-stat: restarts=0
%%%mzn-stat: peakDepth=70
%%%mzn-stat: solveTime=0.031575686
%%%mzn-stat: variables=212
%%%mzn-stat: propagators=132
%%%mzn-stat: failures=636
%%%mzn-stat: propagations=35842
%%%mzn-stat: nogoods=636
%%%mzn-stat: AverageConflictSize=5.270440251572327
%%%mzn-stat: NumUnitNogoodsLearned=506
%%%mzn-stat: AverageLearnedNogoodLength=2.160377358490566
%%%mzn-stat: AverageBacktrackAmount=0
%%%mzn-stat: AverageLbd=1.570754716981132
%%%mzn-stat-end
